500
1000
210
210
210
210
209
209
209
209
208
208
207
207
207
207
207
207
206
206
206
206
206
206
206
206
206
205
205
204
204
203
203
203
203
202
202
202
201
200
200
200
200
200
200
199
199
199
198
198
198
198
198
198
197
197
197
197
197
197
197
196
196
196
195
195
194
194
194
194
194
193
192
192
192
192
192
191
191
190
190
189
189
188
188
187
187
187
187
187
187
186
186
186
186
185
185
185
185
185
184
184
184
184
184
183
183
183
183
183
183
183
183
182
182
182
182
181
181
181
181
180
180
180
179
179
179
179
179
178
178
178
178
178
178
178
177
177
176
176
175
175
175
175
175
174
174
173
173
173
173
173
173
172
172
172
172
172
172
171
171
171
171
171
170
170
169
169
169
169
169
169
169
169
169
168
168
167
167
166
166
166
166
165
165
165
165
165
164
164
164
164
164
164
164
164
164
164
163
163
163
162
162
162
161
161
161
161
160
160
160
160
160
160
159
159
158
158
158
157
157
156
156
156
155
155
154
153
153
152
152
152
152
152
151
151
151
151
151
151
151
151
150
150
150
150
150
149
149
149
148
147
147
147
147
147
147
146
145
145
145
145
144
144
143
142
141
141
141
140
140
140
140
139
139
139
139
139
138
138
137
136
134
134
134
134
134
132
132
132
132
132
132
132
131
131
131
131
131
131
131
131
130
130
130
129
129
129
129
129
128
128
128
128
127
127
127
127
127
126
126
126
125
125
125
124
124
124
123
123
123
122
122
122
122
122
122
121
121
121
121
120
120
119
119
119
119
118
118
118
117
117
117
117
117
116
116
116
114
114
114
114
114
114
113
113
113
112
112
112
112
112
112
112
111
111
111
111
110
110
110
109
109
109
109
109
107
107
107
107
107
107
107
106
106
106
105
105
105
105
105
103
102
102
102
102
102
101
100
99
99
99
98
98
97
97
97
97
96
96
96
96
96
96
96
96
95
95
95
94
94
94
93
93
93
93
93
93
93
93
92
92
92
92
92
91
91
91
91
90
90
90
88
88
87
87
86
86
86
85
85
85
84
84
84
84
83
83
83
83
83
83
83
82
82
82
82
81
81
80
80
80
80
79
79
78
78
78
76
76
76
76
75
75
75
74
74
73
73
72
72
72
